50
948 7511 6240 6233 7030 8550 351 1888 4718 7010 5042 5051 3073 2438 8740 9829 4998 4675 1285 6013 2118 6256 2785 4673 8653 3118 5350 3187 4856 8673 4925 9647 4079 4541 6450 5011 6720 2906 136 4226 644 2482 5979 6904 9099 6785 5553 3444 4770 2882 
3238 6201 85 9829 8222 9991 2634 1995 548 1939 242 6918 3657 8156 7607 3494 1668 3477 303 6484 1898 1488 8885 4371 9461 9803 6640 2498 1478 2466 7367 5119 2980 175 3511 3928 694 2495 2955 4160 4940 5657 8496 2950 949 3032 2161 5757 4763 3211 
123007
